18
0 14 18 2 2
2 6 13 3 2 13 
1 25 0 6 2
2 8 15 3 8 6 
2 3 3 3 2
0 8 15 3 8 9 
3 14 2 9 2
2 2 7 3 2 8 
4 16 13 5 3
0 4 15 2 8 15 3 2 8 
5 18 4 8 2
2 6 10 3 6 10 
6 17 25 4 1
3 2 6 
7 5 8 8 1
3 8 14 
8 1 23 5 3
1 4 9 2 8 7 3 4 14 
9 1 23 6 1
3 8 8 
10 3 5 2 0

11 5 8 8 3
0 2 9 2 6 10 3 2 15 
12 19 0 5 2
2 6 11 3 2 12 
13 14 3 1 1
2 4 15 
14 18 13 3 1
3 8 8 
15 20 8 5 2
2 2 6 3 4 8 
16 3 22 4 2
2 8 7 3 2 15 
17 14 3 8 1
3 4 13 
